seed= 2052018 ;
N= 450 ;
M= 2 ;
F= 3 ;
K= 8 ;
T= 96 ;

p=[ 4 4 4 4 4 4 4 4 4 4 4 4 4 4 4 4 4 4 4 4 4 4 4 4 4 4 4 4 4 4 4 4 4 4 4 4 4 4 4 4 4 4 4 4 4 4 4 4 4 4 4 4 4 4 4 4 4 4 4 4 4 4 4 4 4 4 4 4 4 4 4 4 4 4 4 4 4 4 4 4 4 4 4 4 4 4 4 4 4 4 4 4 4 4 4 4 4 4 4 4 4 4 4 4 4 4 4 4 4 4 4 4 4 4 4 4 4 4 4 4 4 4 4 4 4 4 4 4 4 4 4 4 4 4 4 4 4 4 4 4 4 4 4 4 4 4 4 4 4 4 2 2 2 2 2 2 2 2 2 2 2 2 2 2 2 2 2 2 2 2 2 2 2 2 2 2 2 2 2 2 2 2 2 2 2 2 2 2 2 2 2 2 2 2 2 2 2 2 2 2 2 2 2 2 2 2 2 2 2 2 2 2 2 2 2 2 2 2 2 2 2 2 2 2 2 2 2 2 2 2 2 2 2 2 2 2 2 2 2 2 2 2 2 2 2 2 2 2 2 2 2 2 2 2 2 2 2 2 2 2 2 2 2 2 2 2 2 2 2 2 2 2 2 2 2 2 2 2 2 2 2 2 2 2 2 2 2 2 2 2 2 2 2 2 2 2 2 2 2 2 2 2 2 2 2 2 2 2 2 2 2 2 2 2 2 2 2 2 2 2 2 2 2 2 2 2 2 2 2 2 2 2 2 2 2 2 2 2 2 2 2 2 2 2 2 2 2 2 2 2 2 2 2 2 2 2 2 2 2 2 2 2 2 2 2 2 2 2 2 2 2 2 2 2 2 2 2 2 2 2 2 2 2 2 2 2 2 2 2 2 2 2 2 2 2 2 2 2 2 2 2 2 2 2 2 2 2 2 2 2 2 2 2 2 2 2 2 2 2 2 2 2 2 2 2 2 2 2 2 2 2 2 2 2 2 2 2 2 2 2 2 2 2 2 2 2 2 2 2 2 ];
r=[ 0 0 0 0 0 0 0 0 0 0 0 0 0 0 0 0 0 0 0 0 0 0 0 0 0 0 0 0 0 0 0 0 0 0 0 0 0 0 0 0 0 0 0 0 0 0 0 0 0 0 0 0 0 0 0 0 0 0 0 0 0 0 0 0 0 0 0 0 0 0 0 0 0 0 0 0 0 0 0 0 0 0 0 0 0 0 0 0 0 0 0 0 0 0 0 0 0 0 0 0 0 0 0 0 0 0 0 0 0 0 0 0 0 0 0 0 0 0 0 0 0 0 0 0 0 0 0 0 0 0 0 0 0 0 0 0 0 0 0 0 0 0 0 0 0 0 0 0 0 0 0 0 0 0 0 0 0 0 0 0 0 0 0 0 0 0 0 0 0 0 0 0 0 0 0 0 0 0 0 0 0 0 0 0 0 0 0 0 0 0 0 0 0 0 0 0 0 0 0 0 0 0 0 0 0 0 0 0 0 0 0 0 0 0 0 0 0 0 0 0 0 0 0 0 0 0 0 0 0 0 0 0 0 0 0 0 0 0 0 0 0 0 0 0 0 0 0 0 0 0 0 0 0 0 0 0 0 0 0 0 0 0 0 0 0 0 0 0 0 0 0 0 0 0 0 0 0 0 0 0 0 0 0 0 0 0 0 0 0 0 0 0 0 0 0 0 0 0 0 0 0 0 0 0 0 0 0 0 0 0 0 0 0 0 0 0 0 0 0 0 0 0 0 0 0 0 0 0 0 0 0 0 0 0 0 0 0 0 0 0 0 0 0 0 0 0 0 0 0 0 0 0 0 0 0 0 0 0 0 0 0 0 0 0 0 0 0 0 0 0 0 0 0 0 0 0 0 0 0 0 0 0 0 0 0 0 0 0 0 0 0 0 0 0 0 0 0 0 0 0 0 0 0 0 0 0 0 0 0 0 0 0 0 0 0 0 0 0 0 0 0 0 0 0 0 0 0 0 0 0 0 0 0 0 0 0 0 0 0 0 0 0 0 0 0 0 0 0 0 0 ];
d=[ 66 7 60 12 68 36 1 70 29 25 25 73 46 47 18 55 15 1 52 66 45 59 52 74 41 12 65 38 59 56 31 35 16 7 51 24 33 68 21 5 69 6 50 64 66 47 2 35 25 40 60 44 73 51 48 3 40 29 40 55 3 44 72 49 5 50 56 56 19 16 63 8 59 44 34 19 69 27 45 75 72 4 62 6 27 55 20 48 50 23 49 41 56 72 32 8 12 42 64 17 45 52 47 39 36 34 56 15 9 36 10 63 22 32 42 72 71 63 9 13 1 25 44 42 8 73 22 38 25 42 69 21 40 25 53 3 54 28 16 58 28 16 4 60 11 56 69 39 34 72 28 15 11 71 33 64 58 9 10 57 24 30 9 2 46 29 66 11 75 62 71 74 69 29 70 57 53 52 26 26 15 9 10 49 35 29 33 66 58 30 44 52 10 54 31 39 57 2 13 67 14 36 67 7 57 30 49 62 6 53 69 57 58 10 42 39 49 64 50 52 69 24 29 55 26 31 60 12 40 40 30 19 72 75 50 71 23 55 71 4 25 33 31 13 35 67 16 46 50 3 26 71 6 73 52 67 72 72 26 2 64 65 57 36 75 66 31 60 19 9 67 29 30 3 30 16 67 25 61 57 25 74 21 62 69 67 41 55 40 29 7 16 19 23 3 65 61 58 55 25 13 3 1 67 38 24 52 24 48 27 4 68 58 17 9 49 46 13 8 31 71 3 74 18 52 65 23 10 22 25 4 10 57 69 22 37 31 29 25 49 12 57 49 67 49 73 52 48 62 27 34 15 16 72 0 68 51 7 37 59 68 5 52 3 20 15 40 20 27 7 47 69 59 67 12 62 18 69 25 19 56 17 53 8 67 46 31 43 0 42 38 53 41 37 71 1 65 50 65 75 34 41 60 34 15 6 58 6 6 69 65 55 52 60 60 64 64 5 5 38 40 72 20 15 52 29 39 15 60 56 48 13 54 44 23 63 58 53 41 6 44 41 70 39 66 39 0 22 72 59 ];
s=[ 1 1 1 1 1 1 1 1 1 1 1 1 1 1 1 1 1 1 1 1 1 1 1 1 1 1 1 1 1 1 1 1 1 1 1 1 1 1 1 1 1 1 1 1 1 1 1 1 1 1 1 1 1 1 1 1 1 1 1 1 1 1 1 1 1 1 1 1 1 1 1 1 1 1 1 1 1 1 1 1 1 1 1 1 1 1 1 1 1 1 1 1 1 1 1 1 1 1 1 1 1 1 1 1 1 1 1 1 1 1 1 1 1 1 1 1 1 1 1 1 1 1 1 1 1 1 1 1 1 1 1 1 1 1 1 1 1 1 1 1 1 1 1 1 1 1 1 1 1 1 1 1 1 1 1 1 1 1 1 1 1 1 1 1 1 1 1 1 1 1 1 1 1 1 1 1 1 1 1 1 1 1 1 1 1 1 1 1 1 1 1 1 1 1 1 1 1 1 1 1 1 1 1 1 1 1 1 1 1 1 1 1 1 1 1 1 1 1 1 1 1 1 1 1 1 1 1 1 1 1 1 1 1 1 1 1 1 1 1 1 1 1 1 1 1 1 1 1 1 1 1 1 1 1 1 1 1 1 1 1 1 1 1 1 1 1 1 1 1 1 1 1 1 1 1 1 1 1 1 1 1 1 1 1 1 1 1 1 1 1 1 1 1 1 1 1 1 1 1 1 1 1 1 1 1 1 1 1 1 1 1 1 1 1 1 1 1 1 1 1 1 1 1 1 1 1 1 1 1 1 1 1 1 1 1 1 1 1 1 1 1 1 1 1 1 1 1 1 1 1 1 1 1 1 1 1 1 1 1 1 1 1 1 1 1 1 1 1 1 1 1 1 1 1 1 1 1 1 1 1 1 1 1 1 1 1 1 1 1 1 1 1 1 1 1 1 1 1 1 1 1 1 1 1 1 1 1 1 1 1 1 1 1 1 1 1 1 1 1 1 1 1 1 1 1 1 1 1 1 1 1 1 1 1 1 1 1 1 1 1 1 1 1 1 1 1 1 1 1 1 ];
w=[ 2 2 5 5 1 2 5 3 3 2 3 4 2 1 5 3 3 5 3 4 5 2 1 4 5 2 2 4 2 4 1 4 4 3 1 4 2 4 1 4 4 5 1 5 5 4 5 3 4 5 4 5 1 5 3 3 2 2 2 3 3 2 1 3 1 2 2 3 3 4 3 4 3 4 1 5 1 1 4 1 5 1 3 2 3 2 5 3 3 3 3 3 3 5 2 1 5 4 2 2 5 4 5 3 3 4 3 2 5 3 3 4 2 1 3 4 3 1 1 2 3 2 1 2 5 3 4 5 2 4 5 4 4 4 2 3 1 3 5 1 4 4 3 5 2 2 4 5 4 5 1 3 5 5 1 5 4 5 3 2 1 5 4 1 1 1 3 3 4 3 1 2 1 1 1 1 5 4 5 4 1 5 3 2 1 1 4 5 2 2 2 1 3 4 3 3 2 5 3 4 1 2 1 2 3 2 2 4 4 2 4 4 5 2 2 4 1 4 5 5 5 5 5 3 4 2 5 3 1 4 4 2 3 5 2 2 3 5 4 3 5 3 4 4 2 5 4 5 4 4 1 2 3 1 5 1 3 4 3 1 3 1 1 4 2 1 4 4 5 5 4 3 1 4 1 5 4 3 3 5 2 1 4 3 4 1 1 3 3 4 2 4 1 3 4 4 1 2 2 2 1 3 5 4 1 1 2 5 3 4 4 1 3 3 2 5 5 2 2 1 2 5 3 5 3 5 3 1 5 1 2 4 4 1 1 2 4 2 3 2 5 4 2 1 5 2 4 3 1 4 5 4 4 5 4 3 1 1 5 3 5 4 5 3 2 3 1 4 3 2 1 2 5 1 1 4 3 5 3 1 3 3 5 4 4 5 2 3 2 1 2 4 3 5 3 1 3 2 1 2 3 4 4 5 1 2 4 5 3 3 2 1 3 2 2 4 1 2 2 2 5 1 2 4 1 4 3 1 5 3 3 5 5 2 1 5 3 2 1 1 3 4 5 3 4 1 3 1 1 2 ];
f=[ 1 1 1 1 1 1 1 1 1 1 1 1 1 1 1 1 1 1 1 1 1 1 1 1 1 1 1 1 1 1 1 1 1 1 1 1 1 1 1 1 1 1 1 1 1 1 1 1 1 1 1 1 1 1 1 1 1 1 1 1 1 1 1 1 1 1 1 1 1 1 1 1 1 1 1 1 1 1 1 1 1 1 1 1 1 1 1 1 1 1 1 1 1 1 1 1 1 1 1 1 1 1 1 1 1 1 1 1 1 1 1 1 1 1 1 1 1 1 1 1 1 1 1 1 1 1 1 1 1 1 1 1 1 1 1 1 1 1 1 1 1 1 1 1 1 1 1 1 1 1 2 2 2 2 2 2 2 2 2 2 2 2 2 2 2 2 2 2 2 2 2 2 2 2 2 2 2 2 2 2 2 2 2 2 2 2 2 2 2 2 2 2 2 2 2 2 2 2 2 2 2 2 2 2 2 2 2 2 2 2 2 2 2 2 2 2 2 2 2 2 2 2 2 2 2 2 2 2 2 2 2 2 2 2 2 2 2 2 2 2 2 2 2 2 2 2 2 2 2 2 2 2 2 2 2 2 2 2 2 2 2 2 2 2 2 2 2 2 2 2 2 2 2 2 2 2 2 2 2 2 2 2 2 2 2 2 2 2 2 2 2 2 2 2 2 2 2 2 2 2 3 3 3 3 3 3 3 3 3 3 3 3 3 3 3 3 3 3 3 3 3 3 3 3 3 3 3 3 3 3 3 3 3 3 3 3 3 3 3 3 3 3 3 3 3 3 3 3 3 3 3 3 3 3 3 3 3 3 3 3 3 3 3 3 3 3 3 3 3 3 3 3 3 3 3 3 3 3 3 3 3 3 3 3 3 3 3 3 3 3 3 3 3 3 3 3 3 3 3 3 3 3 3 3 3 3 3 3 3 3 3 3 3 3 3 3 3 3 3 3 3 3 3 3 3 3 3 3 3 3 3 3 3 3 3 3 3 3 3 3 3 3 3 3 3 3 3 3 3 3 ];

e1=[ 10 10 10 10 10 10 10 10 10 10 10 10 10 10 10 10 10 10 10 10 10 10 10 10 10 10 10 10 10 10 10 10 10 10 10 10 10 10 10 10 10 10 10 10 10 10 10 10 8 8 8 8 8 8 8 8 8 8 8 8 8 8 8 8 8 8 8 8 8 8 8 8 8 8 8 8 8 8 8 8 8 8 8 8 8 8 8 8 8 8 8 8 8 8 8 8 ];
e2=[ 10 10 10 10 10 10 10 10 10 10 10 10 10 10 10 10 10 10 10 10 10 10 10 10 10 10 10 10 10 10 10 10 9 9 9 9 9 9 9 9 9 9 9 9 9 9 9 9 8 8 8 8 8 8 8 8 8 8 8 8 8 8 8 8 8 8 8 8 8 8 8 8 8 8 8 8 8 8 8 8 9 9 9 9 9 9 9 9 9 9 9 9 9 9 9 9 ];